
include ${pot}.lmp
include kalj.lmp
units lj
atom_style atomic

variable dimensions equal 3
variable density equal 1.2
variable fraca equal 0.8

dimension ${dimensions}
dimension 3
read_restart ${prevbasename}.final.lmprestart.${steps}
read_restart equil/kalj_T1_n360_v300_50000_1.final.lmprestart.${steps}
read_restart equil/kalj_T1_n360_v300_50000_1.final.lmprestart.50000
Reading restart file ...
  restart file = 15 Sep 2022, LAMMPS = 15 Sep 2022
WARNING: Restart file used different # of processors: 8 vs. 4 (src/read_restart.cpp:659)
  restoring atom style atomic from restart
  orthogonal box = (0 0 0) to (6.6943295 6.6943295 6.6943295)
  1 by 2 by 2 MPI processor grid
  restoring pair style lj/cut from restart
  360 atoms
  read_restart CPU = 0.029 seconds
include ${pot}_particles.lmp
include kalj_particles.lmp
mass * 1.0 #  set mass 1.0 for all types

pair_style lj/cut 2.5
#pair coeffs type1 type2 eps sigma
pair_coeff 1 1 1.0 1.00 2.5
pair_coeff 1 2 1.5 0.80 2.0
pair_coeff 2 2 0.5 0.88 2.2
pair_modify shift yes
reset_timestep 0

print "Setting up equilibration run"
Setting up equilibration run
variable dumptime2 equal ${steps}/2000
variable dumptime2 equal 50000/2000
dump 1 all dcd ${dumptime2} ${basename}.unwrap.dcd
dump 1 all dcd 25 ${basename}.unwrap.dcd
dump 1 all dcd 25 prod/kalj_T1_n360_v300_prod_50000_1.unwrap.dcd
#dump 2 all dcd ${dumptime2} ${basename}.dcd
dump_modify 1 unwrap yes
#dump_modify 2 unwrap no

restart ${restarttime} ${basename}.restart
restart 30000 ${basename}.restart
restart 30000 prod/kalj_T1_n360_v300_prod_50000_1.restart
restart ${steps} ${basename}.final.lmprestart
restart 50000 ${basename}.final.lmprestart
restart 50000 prod/kalj_T1_n360_v300_prod_50000_1.final.lmprestart

thermo ${thermotime}
thermo 2000
timestep ${timestep}
timestep 0.002

neighbor 0.5 bin
neigh_modify every 1 delay ${neighborstep} check yes
neigh_modify every 1 delay 20 check yes

#velocity all create ${temp} ${id} dist gaussian
fix 1 all nvt temp ${temp} ${temp} ${taut}
fix 1 all nvt temp 1 ${temp} ${taut}
fix 1 all nvt temp 1 1 ${taut}
fix 1 all nvt temp 1 1 0.2
Resetting global fix info from restart file:
  fix style: nvt, fix ID: 1

variable steps4 equal ${steps}/4
variable steps4 equal 50000/4
run ${steps4}
run 12500
Generated 0 of 1 mixed pair_coeff terms from geometric mixing rule
All restart file global fix info was re-assigned
Neighbor list info ...
  update: every = 1 steps, delay = 20 steps, check = yes
  max neighbors/atom: 2000, page size: 100000
  master list distance cutoff = 3
  ghost atom cutoff = 3
  binsize = 1.5, bins = 5 5 5
  1 neighbor lists, perpetual/occasional/extra = 1 0 0
  (1) pair lj/cut, perpetual
      attributes: half, newton on
      pair build: half/bin/atomonly/newton
      stencil: half/bin/3d
      bin: standard
Per MPI rank memory allocation (min/avg/max) = 3.137 | 3.137 | 3.137 Mbytes
   Step          Temp          E_pair         E_mol          TotEng         Press     
         0   1.0185376     -5.958221       0             -4.4346584      10.108409    
      2000   0.94236854    -5.9873214      0             -4.5776951      9.9355462    
      4000   0.99481494    -6.0110406      0             -4.5229632      9.9872544    
      6000   1.0380494     -6.0251991      0             -4.4724502      9.8918456    
      8000   0.91483991    -5.9423776      0             -4.5739296      10.075105    
     10000   1.002689      -6.1211702      0             -4.6213146      9.2522269    
     12000   1.0681947     -6.103544       0             -4.5057028      9.5317143    
     12500   1.0356237     -6.0068072      0             -4.4576867      10.013354    
Loop time of 1.06526 on 4 procs for 12500 steps with 360 atoms

Performance: 2027670.662 tau/day, 11734.205 timesteps/s, 4.224 Matom-step/s
99.3% CPU use with 4 MPI tasks x 1 OpenMP threads

MPI task timing breakdown:
Section |  min time  |  avg time  |  max time  |%varavg| %total
---------------------------------------------------------------
Pair    | 0.64322    | 0.65352    | 0.66996    |   1.2 | 61.35
Neigh   | 0.057689   | 0.057907   | 0.058053   |   0.1 |  5.44
Comm    | 0.27771    | 0.29306    | 0.29949    |   1.7 | 27.51
Output  | 0.011917   | 0.014616   | 0.020401   |   2.8 |  1.37
Modify  | 0.029483   | 0.030491   | 0.031536   |   0.4 |  2.86
Other   |            | 0.01567    |            |       |  1.47

Nlocal:             90 ave          94 max          84 min
Histogram: 1 0 0 0 0 1 0 0 0 2
Nghost:        1250.75 ave        1261 max        1236 min
Histogram: 1 0 0 0 1 0 0 0 1 1
Neighs:           5189 ave        5544 max        4799 min
Histogram: 1 0 0 1 0 0 0 1 0 1

Total # of neighbors = 20756
Ave neighs/atom = 57.655556
Neighbor list builds = 339
Dangerous builds = 0
Total wall time: 0:00:01
