
include ${pot}.lmp
include kalj.lmp
units lj
atom_style atomic

variable dimensions equal 3
variable density equal 1.2
variable fraca equal 0.8

dimension ${dimensions}
dimension 3
read_restart ${prevbasename}.final.lmprestart.${steps}
read_restart equil/kalj_T0.9_n360_v300_150000_1.final.lmprestart.${steps}
read_restart equil/kalj_T0.9_n360_v300_150000_1.final.lmprestart.150000
Reading restart file ...
  restart file = 15 Sep 2022, LAMMPS = 15 Sep 2022
WARNING: Restart file used different # of processors: 8 vs. 4 (src/read_restart.cpp:659)
  restoring atom style atomic from restart
  orthogonal box = (0 0 0) to (6.6943295 6.6943295 6.6943295)
  1 by 2 by 2 MPI processor grid
  restoring pair style lj/cut from restart
  360 atoms
  read_restart CPU = 0.007 seconds
include ${pot}_particles.lmp
include kalj_particles.lmp
mass * 1.0 #  set mass 1.0 for all types

pair_style lj/cut 2.5
#pair coeffs type1 type2 eps sigma
pair_coeff 1 1 1.0 1.00 2.5
pair_coeff 1 2 1.5 0.80 2.0
pair_coeff 2 2 0.5 0.88 2.2
pair_modify shift yes
reset_timestep 0

print "Setting up equilibration run"
Setting up equilibration run
variable dumptime2 equal ${steps}/2000
variable dumptime2 equal 150000/2000
dump 1 all dcd ${dumptime2} ${basename}.unwrap.dcd
dump 1 all dcd 75 ${basename}.unwrap.dcd
dump 1 all dcd 75 prod/kalj_T0.9_n360_v300_prod_150000_1.unwrap.dcd
#dump 2 all dcd ${dumptime2} ${basename}.dcd
dump_modify 1 unwrap yes
#dump_modify 2 unwrap no

restart ${restarttime} ${basename}.restart
restart 150000 ${basename}.restart
restart 150000 prod/kalj_T0.9_n360_v300_prod_150000_1.restart
restart ${steps} ${basename}.final.lmprestart
restart 150000 ${basename}.final.lmprestart
restart 150000 prod/kalj_T0.9_n360_v300_prod_150000_1.final.lmprestart

thermo ${thermotime}
thermo 5000
timestep ${timestep}
timestep 0.002

neighbor 0.5 bin
neigh_modify every 1 delay ${neighborstep} check yes
neigh_modify every 1 delay 25 check yes

#velocity all create ${temp} ${id} dist gaussian
fix 1 all nvt temp ${temp} ${temp} ${taut}
fix 1 all nvt temp 0.9 ${temp} ${taut}
fix 1 all nvt temp 0.9 0.9 ${taut}
fix 1 all nvt temp 0.9 0.9 0.2
Resetting global fix info from restart file:
  fix style: nvt, fix ID: 1

variable steps4 equal ${steps}/4
variable steps4 equal 150000/4
run ${steps4}
run 37500
Generated 0 of 1 mixed pair_coeff terms from geometric mixing rule
All restart file global fix info was re-assigned
Neighbor list info ...
  update: every = 1 steps, delay = 25 steps, check = yes
  max neighbors/atom: 2000, page size: 100000
  master list distance cutoff = 3
  ghost atom cutoff = 3
  binsize = 1.5, bins = 5 5 5
  1 neighbor lists, perpetual/occasional/extra = 1 0 0
  (1) pair lj/cut, perpetual
      attributes: half, newton on
      pair build: half/bin/atomonly/newton
      stencil: half/bin/3d
      bin: standard
Per MPI rank memory allocation (min/avg/max) = 3.138 | 3.138 | 3.139 Mbytes
   Step          Temp          E_pair         E_mol          TotEng         Press     
         0   0.83908715    -6.269094       0             -5.0139595      8.023396     
      5000   0.92364248    -6.1031917      0             -4.7215765      9.16701      
     10000   0.85371151    -6.182937       0             -4.9059269      8.7836984    
     15000   0.92020881    -6.225296       0             -4.848817       8.4417125    
     20000   0.96367978    -6.189748       0             -4.7482437      8.8548466    
     25000   0.91715263    -6.1057808      0             -4.7338734      9.3204994    
     30000   0.8499733     -6.2597449      0             -4.9883265      8.1502741    
     35000   0.85333762    -6.1693437      0             -4.8928929      8.5612848    
     37500   0.89614288    -6.1434086      0             -4.8029282      9.1272246    
Loop time of 3.11131 on 4 procs for 37500 steps with 360 atoms

Performance: 2082727.071 tau/day, 12052.819 timesteps/s, 4.339 Matom-step/s
99.5% CPU use with 4 MPI tasks x 1 OpenMP threads

MPI task timing breakdown:
Section |  min time  |  avg time  |  max time  |%varavg| %total
---------------------------------------------------------------
Pair    | 1.8787     | 1.9306     | 1.9653     |   2.5 | 62.05
Neigh   | 0.15997    | 0.16362    | 0.16585    |   0.6 |  5.26
Comm    | 0.84132    | 0.87434    | 0.92744    |   3.8 | 28.10
Output  | 0.013149   | 0.016003   | 0.022169   |   2.9 |  0.51
Modify  | 0.087591   | 0.090895   | 0.094241   |   1.0 |  2.92
Other   |            | 0.03586    |            |       |  1.15

Nlocal:             90 ave          97 max          85 min
Histogram: 1 0 1 0 1 0 0 0 0 1
Nghost:           1257 ave        1263 max        1248 min
Histogram: 1 0 0 0 1 0 0 0 0 2
Neighs:         5193.5 ave        5612 max        4857 min
Histogram: 1 0 1 0 1 0 0 0 0 1

Total # of neighbors = 20774
Ave neighs/atom = 57.705556
Neighbor list builds = 960
Dangerous builds = 2
Total wall time: 0:00:03
