
include ${pot}.lmp
include kalj.lmp
units lj
atom_style atomic

variable dimensions equal 3
variable density equal 1.2
variable fraca equal 0.8

dimension ${dimensions}
dimension 3
read_restart ${prevbasename}.final.lmprestart.${prevsteps}
read_restart equil/kalj_T0.475_n360_v300_30000000_1.final.lmprestart.${prevsteps}
read_restart equil/kalj_T0.475_n360_v300_30000000_1.final.lmprestart.30000000
Reading restart file ...
  restart file = 15 Sep 2022, LAMMPS = 15 Sep 2022
  restoring atom style atomic from restart
  orthogonal box = (0 0 0) to (6.6943295 6.6943295 6.6943295)
  2 by 2 by 2 MPI processor grid
  restoring pair style lj/cut from restart
  360 atoms
  read_restart CPU = 0.003 seconds
include ${pot}_particles.lmp
include kalj_particles.lmp
mass * 1.0 #  set mass 1.0 for all types

pair_style lj/cut 2.5
#pair coeffs type1 type2 eps sigma
pair_coeff 1 1 1.0 1.00 2.5
pair_coeff 1 2 1.5 0.80 2.0
pair_coeff 2 2 0.5 0.88 2.2
pair_modify shift yes
reset_timestep 0

print "Setting up annealing run"
Setting up annealing run
dump 1 all atom ${dumptime} ${basename}.lammpstrj
dump 1 all atom 10000000 ${basename}.lammpstrj
dump 1 all atom 10000000 equil/kalj_T0.45_n360_v300_100000000_1.lammpstrj
#dump_modify 1 sort id scale no

restart ${restarttime} ${basename}.restart
restart 100000000 ${basename}.restart
restart 100000000 equil/kalj_T0.45_n360_v300_100000000_1.restart
restart ${steps} ${basename}.final.lmprestart
restart 100000000 ${basename}.final.lmprestart
restart 100000000 equil/kalj_T0.45_n360_v300_100000000_1.final.lmprestart

thermo ${thermotime}
thermo 1000000
timestep ${timestep}
timestep 0.003

neighbor 0.5 bin
neigh_modify every 1 delay ${neighborstep} check yes
neigh_modify every 1 delay 25 check yes

velocity all create ${temp} ${id} dist gaussian
velocity all create 0.45 ${id} dist gaussian
velocity all create 0.45 1 dist gaussian
fix 1 all nvt temp ${temp} ${temp} ${taut}
fix 1 all nvt temp 0.45 ${temp} ${taut}
fix 1 all nvt temp 0.45 0.45 ${taut}
fix 1 all nvt temp 0.45 0.45 0.3
Resetting global fix info from restart file:
  fix style: nvt, fix ID: 1
run ${steps}
run 100000000
Generated 0 of 1 mixed pair_coeff terms from geometric mixing rule
All restart file global fix info was re-assigned
Neighbor list info ...
  update: every = 1 steps, delay = 25 steps, check = yes
  max neighbors/atom: 2000, page size: 100000
  master list distance cutoff = 3
  ghost atom cutoff = 3
  binsize = 1.5, bins = 5 5 5
  1 neighbor lists, perpetual/occasional/extra = 1 0 0
  (1) pair lj/cut, perpetual
      attributes: half, newton on
      pair build: half/bin/atomonly/newton
      stencil: half/bin/3d
      bin: standard
Per MPI rank memory allocation (min/avg/max) = 4.094 | 4.095 | 4.096 Mbytes
   Step          Temp          E_pair         E_mol          TotEng         Press     
         0   0.45          -7.0097981      0             -6.3366731      3.0916986    
   1000000   0.43375766    -7.0167074      0             -6.3678783      2.9427068    
   2000000   0.45033828    -6.9950303      0             -6.3213993      3.085181     
   3000000   0.42756504    -7.0228336      0             -6.3832675      3.0250288    
   4000000   0.4580217     -7.0418241      0             -6.3566999      2.9519566    
   5000000   0.41015112    -7.0716113      0             -6.4580936      2.5425636    
   6000000   0.44600839    -7.0157696      0             -6.3486154      3.1304045    
   7000000   0.43669271    -6.9874938      0             -6.3342742      3.1819637    
   8000000   0.44109084    -7.018996       0             -6.3591977      2.9713114    
   9000000   0.45249974    -7.0216303      0             -6.3447661      3.0549232    
  10000000   0.47643585    -7.0151233      0             -6.3024547      3.1847046    
  11000000   0.48002182    -7.0227231      0             -6.3046905      3.216654     
  12000000   0.47777895    -7.021368       0             -6.3066903      3.0277469    
  13000000   0.43898324    -6.9629559      0             -6.3063101      3.3156984    
  14000000   0.45741474    -6.9983843      0             -6.3141681      3.1185809    
  15000000   0.42002445    -7.0437862      0             -6.4154997      2.7574722    
  16000000   0.47218272    -7.0150939      0             -6.3087873      3.1299902    
  17000000   0.44262218    -7.0339749      0             -6.3718859      2.9335576    
  18000000   0.46189235    -6.9861093      0             -6.2951953      3.3181543    
  19000000   0.45770774    -7.0232778      0             -6.3386233      2.8470292    
  20000000   0.46795262    -7.0091884      0             -6.3092093      2.9997163    
  21000000   0.42777605    -7.0274474      0             -6.3875657      2.9757903    
  22000000   0.47474494    -7.0067587      0             -6.2966194      3.0685725    
  23000000   0.44879513    -7.0436351      0             -6.3723124      3.0284431    
  24000000   0.47067203    -7.0359571      0             -6.3319102      2.8917964    
  25000000   0.46595666    -7.0330881      0             -6.3360946      3.0559102    
  26000000   0.46822026    -7.0228152      0             -6.3224357      2.9806496    
  27000000   0.45678966    -7.0511628      0             -6.3678816      2.7457099    
  28000000   0.45569095    -7.0397529      0             -6.3581151      2.9475653    
  29000000   0.47379645    -7.0429342      0             -6.3342137      2.8255738    
  30000000   0.44612163    -6.9966896      0             -6.329366       3.0607834    
  31000000   0.45222591    -7.0233917      0             -6.3469372      2.848285     
  32000000   0.43717757    -6.9803207      0             -6.3263759      3.1895071    
  33000000   0.48296367    -6.9893503      0             -6.2669172      3.2693118    
  34000000   0.42121456    -6.9571854      0             -6.3271186      3.5509913    
  35000000   0.41110737    -6.952676       0             -6.3377279      3.438839     
  36000000   0.42704994    -7.0016966      0             -6.362901       3.0333706    
  37000000   0.42928518    -6.9837499      0             -6.3416109      3.0765733    
  38000000   0.47905319    -6.9908073      0             -6.2742236      3.130631     
  39000000   0.44412404    -6.9925238      0             -6.3281883      3.0929476    
  40000000   0.44774755    -7.0467446      0             -6.3769889      2.8127443    
  41000000   0.46088977    -7.0634418      0             -6.3740275      2.7290897    
  42000000   0.49081193    -6.99244        0             -6.2582671      3.2686066    
  43000000   0.47521372    -7.013197       0             -6.3023565      2.9969117    
  44000000   0.40775976    -6.9940255      0             -6.3840849      3.1921254    
  45000000   0.45116512    -7.0603465      0             -6.3854787      2.6585701    
  46000000   0.48330458    -7.0187183      0             -6.2957752      3.1503238    
  47000000   0.45309249    -6.9901069      0             -6.3123561      3.1359566    
  48000000   0.44106251    -7.0129467      0             -6.3531907      2.9350684    
  49000000   0.44240233    -7.04399        0             -6.3822299      2.8061284    
  50000000   0.43160358    -7.0726022      0             -6.4269952      2.6761349    
  51000000   0.44413347    -7.011361       0             -6.3470113      3.1039235    
  52000000   0.45378711    -7.0234039      0             -6.344614       3.0878468    
  53000000   0.4597452     -6.99912        0             -6.3114178      3.1258986    
  54000000   0.48794832    -6.9973324      0             -6.267443       3.0605743    
  55000000   0.44761412    -6.9560901      0             -6.2865339      3.2339902    
  56000000   0.44639762    -6.9992499      0             -6.3315135      3.0215312    
  57000000   0.43781592    -6.9908107      0             -6.3359111      3.0958756    
  58000000   0.44541829    -7.008464       0             -6.3421924      2.9458488    
  59000000   0.42838032    -6.968815       0             -6.3280294      3.2533938    
  60000000   0.44914315    -6.9891395      0             -6.3172962      3.1439796    
  61000000   0.43306723    -6.9773998      0             -6.3296034      3.2143583    
  62000000   0.49688376    -7.016041       0             -6.2727857      3.0984097    
  63000000   0.45637187    -7.0145489      0             -6.3318927      3.1203247    
  64000000   0.4311843     -7.0175322      0             -6.3725524      2.8936067    
  65000000   0.44204979    -6.9754269      0             -6.3141941      3.2750591    
  66000000   0.43918021    -7.0619289      0             -6.4049885      2.5797506    
  67000000   0.44110842    -6.9969031      0             -6.3370784      3.0870761    
  68000000   0.45594212    -6.9993837      0             -6.3173703      3.1647908    
  69000000   0.44369789    -7.0416597      0             -6.3779616      2.7928743    
  70000000   0.43116116    -7.0534508      0             -6.4085056      2.7483429    
  71000000   0.43333577    -7.0115921      0             -6.363394       2.9229505    
  72000000   0.42037333    -7.015276       0             -6.3864675      2.9828531    
  73000000   0.41336287    -7.0022921      0             -6.3839701      2.9723166    
  74000000   0.41146388    -6.9971343      0             -6.381653       2.9884333    
  75000000   0.45444452    -6.9878729      0             -6.3080997      3.3122557    
  76000000   0.45762196    -6.9943343      0             -6.3098081      3.2444395    
  77000000   0.41803224    -7.0196823      0             -6.3943757      2.9357635    
  78000000   0.42440569    -7.0268754      0             -6.3920352      2.8769727    
  79000000   0.43810324    -7.039954       0             -6.3846246      2.8656699    
  80000000   0.44226859    -6.9896637      0             -6.3281036      3.2101889    
  81000000   0.45124207    -6.9875074      0             -6.3125245      3.0018247    
  82000000   0.45610651    -6.9811917      0             -6.2989324      3.1539688    
  83000000   0.45933594    -6.9428166      0             -6.2557265      3.5759483    
  84000000   0.42616036    -7.0199345      0             -6.3824696      2.9257203    
  85000000   0.4254156     -6.9572686      0             -6.3209178      3.3658976    
  86000000   0.43009641    -7.0264115      0             -6.383059       3.0408953    
  87000000   0.44650901    -7.0036994      0             -6.3357964      3.0793544    
  88000000   0.47819851    -6.9810646      0             -6.2657594      3.3199578    
  89000000   0.4531664     -6.9683736      0             -6.2905121      3.3739696    
  90000000   0.43670045    -6.9658883      0             -6.3126572      3.3317961    
  91000000   0.47033738    -7.0413461      0             -6.3377998      2.968891     
  92000000   0.45113899    -6.9916032      0             -6.3167744      3.288114     
  93000000   0.4582744     -6.9284045      0             -6.2429023      3.6223568    
  94000000   0.42337254    -7.0108414      0             -6.3775467      3.0853564    
  95000000   0.44954701    -7.0285071      0             -6.3560597      2.9199931    
  96000000   0.46743257    -7.0420123      0             -6.342811       2.7225151    
  97000000   0.4495932     -7.0106495      0             -6.338133       3.1922384    
  98000000   0.44971708    -6.989243       0             -6.3165412      3.3447649    
  99000000   0.42442727    -7.0083124      0             -6.3734399      3.0220632    
 100000000   0.44058984    -7.0930382      0             -6.4339892      2.4698822    
Loop time of 5051.49 on 8 procs for 100000000 steps with 360 atoms

Performance: 5131154.378 tau/day, 19796.120 timesteps/s, 7.127 Matom-step/s
99.4% CPU use with 8 MPI tasks x 1 OpenMP threads

MPI task timing breakdown:
Section |  min time  |  avg time  |  max time  |%varavg| %total
---------------------------------------------------------------
Pair    | 2174.9     | 2203.2     | 2247.6     |  54.2 | 43.62
Neigh   | 212.66     | 214.72     | 218.08     |  10.6 |  4.25
Comm    | 2240.7     | 2285.6     | 2310.9     |  51.8 | 45.25
Output  | 0.24807    | 0.24835    | 0.25034    |   0.2 |  0.00
Modify  | 243.64     | 249.71     | 255.86     |  24.4 |  4.94
Other   |            | 97.94      |            |       |  1.94

Nlocal:             45 ave          47 max          42 min
Histogram: 1 0 0 0 3 0 1 0 0 3
Nghost:        929.875 ave         943 max         918 min
Histogram: 2 1 1 0 0 0 1 0 1 2
Neighs:        2599.62 ave        2742 max        2448 min
Histogram: 1 1 1 1 0 1 0 0 0 3

Total # of neighbors = 20797
Ave neighs/atom = 57.769444
Neighbor list builds = 2471470
Dangerous builds = 1536
Total wall time: 1:24:11
