
include ${pot}.lmp
include kalj.lmp
units lj
atom_style atomic

variable dimensions equal 3
variable density equal 1.2
variable fraca equal 0.8

dimension ${dimensions}
dimension 3
read_restart ${prevbasename}.final.lmprestart.${prevsteps}
read_restart equil/kalj_T0.6_n360_v300_1000000_1.final.lmprestart.${prevsteps}
read_restart equil/kalj_T0.6_n360_v300_1000000_1.final.lmprestart.1000000
Reading restart file ...
  restart file = 15 Sep 2022, LAMMPS = 15 Sep 2022
  restoring atom style atomic from restart
  orthogonal box = (0 0 0) to (6.6943295 6.6943295 6.6943295)
  2 by 2 by 2 MPI processor grid
  restoring pair style lj/cut from restart
  360 atoms
  read_restart CPU = 0.210 seconds
include ${pot}_particles.lmp
include kalj_particles.lmp
mass * 1.0 #  set mass 1.0 for all types

pair_style lj/cut 2.5
#pair coeffs type1 type2 eps sigma
pair_coeff 1 1 1.0 1.00 2.5
pair_coeff 1 2 1.5 0.80 2.0
pair_coeff 2 2 0.5 0.88 2.2
pair_modify shift yes
reset_timestep 0

print "Setting up annealing run"
Setting up annealing run
dump 1 all atom ${dumptime} ${basename}.lammpstrj
dump 1 all atom 300000 ${basename}.lammpstrj
dump 1 all atom 300000 equil/kalj_T0.55_n360_v300_3000000_1.lammpstrj
#dump_modify 1 sort id scale no

restart ${restarttime} ${basename}.restart
restart 3000000 ${basename}.restart
restart 3000000 equil/kalj_T0.55_n360_v300_3000000_1.restart
restart ${steps} ${basename}.final.lmprestart
restart 3000000 ${basename}.final.lmprestart
restart 3000000 equil/kalj_T0.55_n360_v300_3000000_1.final.lmprestart

thermo ${thermotime}
thermo 30000
timestep ${timestep}
timestep 0.003

neighbor 0.5 bin
neigh_modify every 1 delay ${neighborstep} check yes
neigh_modify every 1 delay 25 check yes

velocity all create ${temp} ${id} dist gaussian
velocity all create 0.55 ${id} dist gaussian
velocity all create 0.55 1 dist gaussian
fix 1 all nvt temp ${temp} ${temp} ${taut}
fix 1 all nvt temp 0.55 ${temp} ${taut}
fix 1 all nvt temp 0.55 0.55 ${taut}
fix 1 all nvt temp 0.55 0.55 0.3
Resetting global fix info from restart file:
  fix style: nvt, fix ID: 1
run ${steps}
run 3000000
Generated 0 of 1 mixed pair_coeff terms from geometric mixing rule
All restart file global fix info was re-assigned
Neighbor list info ...
  update: every = 1 steps, delay = 25 steps, check = yes
  max neighbors/atom: 2000, page size: 100000
  master list distance cutoff = 3
  ghost atom cutoff = 3
  binsize = 1.5, bins = 5 5 5
  1 neighbor lists, perpetual/occasional/extra = 1 0 0
  (1) pair lj/cut, perpetual
      attributes: half, newton on
      pair build: half/bin/atomonly/newton
      stencil: half/bin/3d
      bin: standard
Per MPI rank memory allocation (min/avg/max) = 4.095 | 4.095 | 4.095 Mbytes
   Step          Temp          E_pair         E_mol          TotEng         Press     
         0   0.55          -6.6765379      0             -5.8538295      5.2426558    
     30000   0.57519162    -6.8263959      0             -5.9660051      4.3569486    
     60000   0.56234768    -6.7848499      0             -5.9436715      4.6137202    
     90000   0.52874419    -6.8384063      0             -6.0474931      4.2227032    
    120000   0.54831726    -6.7587614      0             -5.9385702      4.6305717    
    150000   0.54448825    -6.8019316      0             -5.9874679      4.4780594    
    180000   0.5782512     -6.7657241      0             -5.9007567      4.862259     
    210000   0.51438912    -6.855464       0             -6.0860236      4.2549587    
    240000   0.5584452     -6.8701836      0             -6.0348426      4.1208089    
    270000   0.5884754     -6.7867346      0             -5.9064735      4.6896879    
    300000   0.59011622    -6.7342017      0             -5.8514862      4.9727011    
    330000   0.54903567    -6.7994729      0             -5.978207       4.6515219    
    360000   0.58564814    -6.8277799      0             -5.9517479      4.2412874    
    390000   0.59552089    -6.8136584      0             -5.9228584      4.3690599    
    420000   0.52845159    -6.7980693      0             -6.0075938      4.2952497    
    450000   0.59595999    -6.8354743      0             -5.9440175      4.3943819    
    480000   0.51668188    -6.7156988      0             -5.9428289      5.0458438    
    510000   0.52950838    -6.8608614      0             -6.0688051      4.0613313    
    540000   0.5537948     -6.8218923      0             -5.9935076      4.469452     
    570000   0.61290928    -6.7868055      0             -5.8699954      4.5931632    
    600000   0.58606333    -6.7847885      0             -5.9081355      4.7818637    
    630000   0.56644       -6.8095796      0             -5.9622798      4.6161574    
    660000   0.53729664    -6.886521       0             -6.0828147      3.9436733    
    690000   0.57376578    -6.7441585      0             -5.8859005      4.7754563    
    720000   0.57498117    -6.8149256      0             -5.9548496      4.4600249    
    750000   0.52639201    -6.8219559      0             -6.0345612      4.6507435    
    780000   0.55922991    -6.8148927      0             -5.978378       4.5236922    
    810000   0.58296131    -6.818362       0             -5.946349       4.5387967    
    840000   0.5127828     -6.8898375      0             -6.1227999      3.9785189    
    870000   0.55688995    -6.7925438      0             -5.9595292      4.6535833    
    900000   0.53635589    -6.8469781      0             -6.0446791      4.2201396    
    930000   0.55143319    -6.7498878      0             -5.9250357      4.7562716    
    960000   0.55751378    -6.7960646      0             -5.9621169      4.4186189    
    990000   0.5348852     -6.8060375      0             -6.0059384      4.6274036    
   1020000   0.5258388     -6.8107476      0             -6.0241804      4.3841406    
   1050000   0.58632644    -6.8227893      0             -5.9457426      4.3413898    
   1080000   0.54039675    -6.8454675      0             -6.037124       4.0992852    
   1110000   0.59995855    -6.8414662      0             -5.9440282      4.1817108    
   1140000   0.54836245    -6.8064035      0             -5.9861447      4.4432245    
   1170000   0.56033996    -6.8148977      0             -5.9767225      4.339874     
   1200000   0.53192939    -6.8082583      0             -6.0125806      4.3211722    
   1230000   0.56262448    -6.7345382      0             -5.8929457      5.0177082    
   1260000   0.51480355    -6.8395112      0             -6.0694509      4.0628861    
   1290000   0.57280564    -6.7785194      0             -5.9216977      4.6499314    
   1320000   0.55794058    -6.7550951      0             -5.920509       4.6165755    
   1350000   0.56320539    -6.8119995      0             -5.9695381      4.5256112    
   1380000   0.57434224    -6.8661204      0             -6.0070002      4.1458235    
   1410000   0.57551519    -6.771401       0             -5.9105262      4.6360985    
   1440000   0.5395287     -6.8845613      0             -6.0775162      3.7780292    
   1470000   0.53976968    -6.8256597      0             -6.0182542      4.2886753    
   1500000   0.5616926     -6.8709975      0             -6.030799       3.9355079    
   1530000   0.55826363    -6.8155901      0             -5.9805207      4.3960068    
   1560000   0.56016488    -6.8178926      0             -5.9799793      4.3658278    
   1590000   0.53599254    -6.789377       0             -5.9876215      4.5459415    
   1620000   0.60258517    -6.8135198      0             -5.9121528      4.5531547    
   1650000   0.51166885    -6.7734322      0             -6.0080609      4.6156589    
   1680000   0.54674219    -6.8306635      0             -6.0128283      4.2396319    
   1710000   0.54078324    -6.8076234      0             -5.9987018      4.4876595    
   1740000   0.53699569    -6.8269443      0             -6.0236883      4.41782      
   1770000   0.55101156    -6.8290519      0             -6.0048304      4.3015166    
   1800000   0.5554073     -6.8496168      0             -6.01882        4.2244656    
   1830000   0.54894624    -6.826461       0             -6.0053289      4.3268878    
   1860000   0.5435077     -6.8233944      0             -6.0103975      4.4286215    
   1890000   0.54121478    -6.7767075      0             -5.9671404      4.6942395    
   1920000   0.55179059    -6.7811398      0             -5.9557531      4.5814171    
   1950000   0.60259493    -6.8818876      0             -5.980506       4.0618616    
   1980000   0.55615042    -6.8657661      0             -6.0338578      4.1098576    
   2010000   0.56699082    -6.7885587      0             -5.9404349      4.6002555    
   2040000   0.51727301    -6.7633475      0             -5.9895933      4.6063724    
   2070000   0.54888533    -6.7886461      0             -5.9676052      4.6055302    
   2100000   0.53355117    -6.7945887      0             -5.9964851      4.5192855    
   2130000   0.57357736    -6.8167379      0             -5.9587618      4.6078393    
   2160000   0.56548471    -6.7938081      0             -5.9479373      4.4197855    
   2190000   0.5601244     -6.803816       0             -5.9659633      4.5864121    
   2220000   0.52723068    -6.8273819      0             -6.0387326      4.2825611    
   2250000   0.56000027    -6.8414698      0             -6.0038027      4.2016944    
   2280000   0.52852453    -6.8074385      0             -6.0168539      4.4660726    
   2310000   0.51307751    -6.7578439      0             -5.9903654      4.5645295    
   2340000   0.5344681     -6.8060408      0             -6.0065656      4.2872879    
   2370000   0.54802456    -6.864229       0             -6.0444756      4.1449107    
   2400000   0.55226631    -6.8218794      0             -5.995781       4.2561195    
   2430000   0.55218144    -6.7965629      0             -5.9705915      4.5806205    
   2460000   0.53657226    -6.8139152      0             -6.0112925      4.4341638    
   2490000   0.53382645    -6.7964281      0             -5.9979127      4.6045537    
   2520000   0.59629149    -6.8310452      0             -5.9390925      4.4306244    
   2550000   0.55208569    -6.8031786      0             -5.9773505      4.4418202    
   2580000   0.55130895    -6.7845611      0             -5.9598948      4.5695976    
   2610000   0.57666236    -6.856247       0             -5.9936562      4.2245512    
   2640000   0.53502594    -6.8172749      0             -6.0169652      4.3158735    
   2670000   0.55347309    -6.7989525      0             -5.971049       4.5611652    
   2700000   0.54963604    -6.7775599      0             -5.955396       4.6959092    
   2730000   0.5649757     -6.7740466      0             -5.9289371      4.7381872    
   2760000   0.60239223    -6.7738936      0             -5.8728152      4.6521592    
   2790000   0.56811866    -6.831425       0             -5.9816142      4.2807777    
   2820000   0.51576349    -6.8196914      0             -6.0481951      4.1574122    
   2850000   0.5394374     -6.8849399      0             -6.0780315      3.9403241    
   2880000   0.54449088    -6.8446728      0             -6.0302052      4.2583638    
   2910000   0.56974861    -6.8496233      0             -5.9973744      4.4136777    
   2940000   0.5472065     -6.7724231      0             -5.9538934      4.7042761    
   2970000   0.55624267    -6.7504122      0             -5.9183659      4.7961158    
   3000000   0.55855848    -6.8407521      0             -6.0052417      4.1927694    
Loop time of 179.409 on 8 procs for 3000000 steps with 360 atoms

Performance: 4334225.879 tau/day, 16721.550 timesteps/s, 6.020 Matom-step/s
97.1% CPU use with 8 MPI tasks x 1 OpenMP threads

MPI task timing breakdown:
Section |  min time  |  avg time  |  max time  |%varavg| %total
---------------------------------------------------------------
Pair    | 65.79      | 67.61      | 69.876     |  15.2 | 37.68
Neigh   | 7.3595     | 7.4598     | 7.5993     |   2.7 |  4.16
Comm    | 84.986     | 87.064     | 88.627     |  12.5 | 48.53
Output  | 0.2129     | 0.21315    | 0.21484    |   0.1 |  0.12
Modify  | 12.792     | 13.413     | 14.067     |  12.6 |  7.48
Other   |            | 3.649      |            |       |  2.03

Nlocal:             45 ave          51 max          39 min
Histogram: 2 0 1 0 1 0 1 1 1 1
Nghost:        935.125 ave         945 max         925 min
Histogram: 1 0 1 2 0 1 0 1 0 2
Neighs:        2593.62 ave        2812 max        2243 min
Histogram: 1 1 0 0 0 2 0 1 1 2

Total # of neighbors = 20749
Ave neighs/atom = 57.636111
Neighbor list builds = 84816
Dangerous builds = 579
Total wall time: 0:03:00
