
include ${pot}.lmp
include kalj.lmp
units lj
atom_style atomic

variable dimensions equal 3
variable density equal 1.2
variable fraca equal 0.8

dimension ${dimensions}
dimension 3

#setup box
variable boxlength equal exp(ln(${volume})/${dimensions})
variable boxlength equal exp(ln(300)/${dimensions})
variable boxlength equal exp(ln(300)/3)
variable ntypea equal floor(${fraca}*${natoms})
variable ntypea equal floor(0.8*${natoms})
variable ntypea equal floor(0.8*360)
variable bstart equal ${ntypea}+1
variable bstart equal 288+1
variable ntypeb equal ${natoms}-${ntypea}
variable ntypeb equal 360-${ntypea}
variable ntypeb equal 360-288

lattice fcc ${density}
lattice fcc 1.2
Lattice spacing in x,y,z = 1.4938016 1.4938016 1.4938016
region box01 block 0 ${boxlength} 0 ${boxlength} 0 ${boxlength} units box
region box01 block 0 6.69432950082169 0 ${boxlength} 0 ${boxlength} units box
region box01 block 0 6.69432950082169 0 6.69432950082169 0 ${boxlength} units box
region box01 block 0 6.69432950082169 0 6.69432950082169 0 6.69432950082169 units box
create_box 2 box01 # 2 atomtypes
Created orthogonal box = (0 0 0) to (6.6943295 6.6943295 6.6943295)
  2 by 2 by 2 MPI processor grid
create_atoms 1 box
Created 365 atoms
  using lattice units in orthogonal box = (0 0 0) to (6.6943295 6.6943295 6.6943295)
  create_atoms CPU = 0.017 seconds

set atom ${bstart}* type 2
set atom 289* type 2
Setting atom values ...
  77 settings made for type
group extra id > ${natoms}
group extra id > 360
5 atoms in group extra
delete_atoms group extra
Deleted 5 atoms, new total = 360
group typea type 1
288 atoms in group typea
group typeb type 2
72 atoms in group typeb

include ${pot}_particles.lmp
include kalj_particles.lmp
mass * 1.0 #  set mass 1.0 for all types

pair_style lj/cut 2.5
#pair coeffs type1 type2 eps sigma
pair_coeff 1 1 1.0 1.00 2.5
pair_coeff 1 2 1.5 0.80 2.0
pair_coeff 2 2 0.5 0.88 2.2
pair_modify shift yes

print "Minimizing initial structure"
Minimizing initial structure
restart ${minsteps} ${basename}.final.lmprestart
restart 10000 ${basename}.final.lmprestart
restart 10000 equil/kalj_T2_n360_v300_10000_1.final.lmprestart
dump 1 all atom ${dumptime} ${basename}.lammpstrj
dump 1 all atom 10000 ${basename}.lammpstrj
dump 1 all atom 10000 equil/kalj_T2_n360_v300_10000_1.lammpstrj
thermo ${thermotime}
thermo 1000
timestep ${timestep}
timestep 0.001
neighbor 0.5 bin
neigh_modify every 1 delay 0 check yes
fix 1 all nve/limit 0.1
run ${minsteps}
run 10000
Generated 0 of 1 mixed pair_coeff terms from geometric mixing rule
Neighbor list info ...
  update: every = 1 steps, delay = 0 steps, check = yes
  max neighbors/atom: 2000, page size: 100000
  master list distance cutoff = 3
  ghost atom cutoff = 3
  binsize = 1.5, bins = 5 5 5
  1 neighbor lists, perpetual/occasional/extra = 1 0 0
  (1) pair lj/cut, perpetual
      attributes: half, newton on
      pair build: half/bin/atomonly/newton
      stencil: half/bin/3d
      bin: standard
Per MPI rank memory allocation (min/avg/max) = 4.104 | 4.105 | 4.105 Mbytes
   Step          Temp          E_pair         E_mol          TotEng         Press     
         0   0              31.41578       0              31.41578       200.04157    
      1000   16.748973      6.1797313      0              31.233404      97.760244    
      2000   16.744309      6.1867821      0              31.233477      97.719632    
      3000   17.106327      5.6444612      0              31.232675      95.480316    
      4000   17.087387      5.6743838      0              31.234267      95.463231    
      5000   16.832243      6.0544759      0              31.232707      97.950202    
      6000   16.974815      5.8414032      0              31.232897      96.269788    
      7000   16.560401      6.4619766      0              31.233576      98.993914    
      8000   16.658599      6.3143902      0              31.232878      98.398534    
      9000   17.10293       5.6499988      0              31.233131      95.607973    
     10000   17.184109      5.5288793      0              31.233443      94.832614    
Loop time of 0.668969 on 8 procs for 10000 steps with 360 atoms

Performance: 1291540.392 tau/day, 14948.384 timesteps/s, 5.381 Matom-step/s
97.9% CPU use with 8 MPI tasks x 1 OpenMP threads

MPI task timing breakdown:
Section |  min time  |  avg time  |  max time  |%varavg| %total
---------------------------------------------------------------
Pair    | 0.24466    | 0.25538    | 0.27883    |   2.0 | 38.18
Neigh   | 0.051515   | 0.053313   | 0.056283   |   0.6 |  7.97
Comm    | 0.27376    | 0.30332    | 0.31696    |   2.2 | 45.34
Output  | 0.021626   | 0.021641   | 0.021739   |   0.0 |  3.23
Modify  | 0.0051779  | 0.005539   | 0.0059404  |   0.3 |  0.83
Other   |            | 0.02977    |            |       |  4.45

Nlocal:             45 ave          50 max          37 min
Histogram: 1 0 0 0 1 1 2 1 1 1
Nghost:          943.5 ave         960 max         927 min
Histogram: 1 1 1 1 1 0 0 1 0 2
Neighs:           2588 ave        2888 max        2197 min
Histogram: 1 0 1 1 0 0 2 1 1 1

Total # of neighbors = 20704
Ave neighs/atom = 57.511111
Neighbor list builds = 605
Dangerous builds = 0
Total wall time: 0:00:00
