
include ${pot}.lmp
include kalj.lmp
units lj
atom_style atomic

variable dimensions equal 3
variable density equal 1.2
variable fraca equal 0.8

dimension ${dimensions}
dimension 3
read_restart ${prevbasename}.final.lmprestart.${prevsteps}
read_restart equil/kalj_T0.5_n360_v300_10000000_1.final.lmprestart.${prevsteps}
read_restart equil/kalj_T0.5_n360_v300_10000000_1.final.lmprestart.10000000
Reading restart file ...
  restart file = 15 Sep 2022, LAMMPS = 15 Sep 2022
  restoring atom style atomic from restart
  orthogonal box = (0 0 0) to (6.6943295 6.6943295 6.6943295)
  2 by 2 by 2 MPI processor grid
  restoring pair style lj/cut from restart
  360 atoms
  read_restart CPU = 0.029 seconds
include ${pot}_particles.lmp
include kalj_particles.lmp
mass * 1.0 #  set mass 1.0 for all types

pair_style lj/cut 2.5
#pair coeffs type1 type2 eps sigma
pair_coeff 1 1 1.0 1.00 2.5
pair_coeff 1 2 1.5 0.80 2.0
pair_coeff 2 2 0.5 0.88 2.2
pair_modify shift yes
reset_timestep 0

print "Setting up annealing run"
Setting up annealing run
dump 1 all atom ${dumptime} ${basename}.lammpstrj
dump 1 all atom 3000000 ${basename}.lammpstrj
dump 1 all atom 3000000 equil/kalj_T0.475_n360_v300_30000000_1.lammpstrj
#dump_modify 1 sort id scale no

restart ${restarttime} ${basename}.restart
restart 30000000 ${basename}.restart
restart 30000000 equil/kalj_T0.475_n360_v300_30000000_1.restart
restart ${steps} ${basename}.final.lmprestart
restart 30000000 ${basename}.final.lmprestart
restart 30000000 equil/kalj_T0.475_n360_v300_30000000_1.final.lmprestart

thermo ${thermotime}
thermo 300000
timestep ${timestep}
timestep 0.003

neighbor 0.5 bin
neigh_modify every 1 delay ${neighborstep} check yes
neigh_modify every 1 delay 25 check yes

velocity all create ${temp} ${id} dist gaussian
velocity all create 0.475 ${id} dist gaussian
velocity all create 0.475 1 dist gaussian
fix 1 all nvt temp ${temp} ${temp} ${taut}
fix 1 all nvt temp 0.475 ${temp} ${taut}
fix 1 all nvt temp 0.475 0.475 ${taut}
fix 1 all nvt temp 0.475 0.475 0.3
Resetting global fix info from restart file:
  fix style: nvt, fix ID: 1
run ${steps}
run 30000000
Generated 0 of 1 mixed pair_coeff terms from geometric mixing rule
All restart file global fix info was re-assigned
Neighbor list info ...
  update: every = 1 steps, delay = 25 steps, check = yes
  max neighbors/atom: 2000, page size: 100000
  master list distance cutoff = 3
  ghost atom cutoff = 3
  binsize = 1.5, bins = 5 5 5
  1 neighbor lists, perpetual/occasional/extra = 1 0 0
  (1) pair lj/cut, perpetual
      attributes: half, newton on
      pair build: half/bin/atomonly/newton
      stencil: half/bin/3d
      bin: standard
Per MPI rank memory allocation (min/avg/max) = 4.093 | 4.094 | 4.095 Mbytes
   Step          Temp          E_pair         E_mol          TotEng         Press     
         0   0.475         -6.937015       0             -6.2264942      3.5060511    
    300000   0.46240961    -6.9570873      0             -6.2653996      3.4782878    
    600000   0.47947718    -6.9961932      0             -6.2789752      3.1846013    
    900000   0.44149494    -6.9195269      0             -6.2591241      3.7609475    
   1200000   0.49977388    -6.9600222      0             -6.2124438      3.5010719    
   1500000   0.45321958    -6.9858756      0             -6.3079346      3.268494     
   1800000   0.47996792    -6.9503468      0             -6.2323947      3.4144057    
   2100000   0.48442331    -6.9214315      0             -6.196815       3.6470569    
   2400000   0.44712136    -6.9805603      0             -6.3117412      3.1073564    
   2700000   0.47704202    -6.97332        0             -6.2597446      3.4211292    
   3000000   0.50973929    -6.9949593      0             -6.2324742      3.2965345    
   3300000   0.49092469    -6.9043786      0             -6.170037       3.719063     
   3600000   0.47588547    -6.9576605      0             -6.2458151      3.3520889    
   3900000   0.4240014     -6.907942       0             -6.2737066      3.7808455    
   4200000   0.51526174    -6.9423148      0             -6.1715691      3.4299773    
   4500000   0.46099655    -7.0094795      0             -6.3199055      3.0681432    
   4800000   0.45677694    -6.9583746      0             -6.2751124      3.4835248    
   5100000   0.49224328    -6.9460509      0             -6.209737       3.4563461    
   5400000   0.47194117    -6.9240333      0             -6.218088       3.5528911    
   5700000   0.49052332    -6.9427898      0             -6.2090487      3.5387209    
   6000000   0.48791235    -6.9288902      0             -6.1990547      3.5917246    
   6300000   0.49878654    -6.998582       0             -6.2524805      3.1354291    
   6600000   0.48277347    -6.9819263      0             -6.2597777      3.1305055    
   6900000   0.53034642    -6.9690009      0             -6.1756911      3.4491887    
   7200000   0.46057322    -6.9411074      0             -6.2521666      3.6610665    
   7500000   0.5005753     -6.9678754      0             -6.2190982      3.3509707    
   7800000   0.45355912    -6.9364275      0             -6.2579786      3.5425028    
   8100000   0.49397629    -7.0126139      0             -6.2737077      3.1516062    
   8400000   0.49203454    -6.9694309      0             -6.2334292      3.4326469    
   8700000   0.48064136    -6.9365238      0             -6.2175644      3.5104792    
   9000000   0.45784836    -6.9674962      0             -6.2826313      3.3082333    
   9300000   0.46363597    -6.9940159      0             -6.3004938      3.1967058    
   9600000   0.49270826    -6.9532505      0             -6.2162411      3.538221     
   9900000   0.48173555    -6.9463025      0             -6.2257064      3.5311953    
  10200000   0.4678441     -6.9777083      0             -6.2778915      3.348634     
  10500000   0.4591316     -6.9514976      0             -6.2647133      3.4075436    
  10800000   0.47997383    -6.8900614      0             -6.1721006      3.8311002    
  11100000   0.47918395    -6.9346189      0             -6.2178395      3.426309     
  11400000   0.49597248    -6.9575393      0             -6.2156471      3.5697242    
  11700000   0.48981447    -6.9626753      0             -6.2299945      3.2626451    
  12000000   0.47191252    -7.0363137      0             -6.3304112      3.0174199    
  12300000   0.45266127    -6.9782447      0             -6.3011388      3.0823315    
  12600000   0.47170737    -7.0149322      0             -6.3093366      3.0182244    
  12900000   0.4692507     -6.9796483      0             -6.2777275      3.3199148    
  13200000   0.48309279    -6.974411       0             -6.2517847      3.2461896    
  13500000   0.455971      -6.9733648      0             -6.2913081      3.3423099    
  13800000   0.48123364    -6.9123629      0             -6.1925176      3.733502     
  14100000   0.46511975    -6.9124682      0             -6.2167266      3.7019363    
  14400000   0.47686977    -6.9226131      0             -6.2092954      3.6871501    
  14700000   0.4821649     -6.9556335      0             -6.2343952      3.4226946    
  15000000   0.4918393     -6.9821399      0             -6.2464303      3.2910439    
  15300000   0.4626549     -6.9651803      0             -6.2731257      3.4244459    
  15600000   0.49795253    -6.9017692      0             -6.1569152      3.8727658    
  15900000   0.45501794    -6.9723125      0             -6.2916815      3.366543     
  16200000   0.49241631    -6.9894002      0             -6.2528274      3.1197877    
  16500000   0.50101505    -6.9967314      0             -6.2472963      3.1182733    
  16800000   0.49970906    -6.9451471      0             -6.1976656      3.8173607    
  17100000   0.46356197    -6.9336162      0             -6.2402048      3.6503485    
  17400000   0.47462524    -6.9769881      0             -6.2670278      3.1911367    
  17700000   0.46088773    -7.0047489      0             -6.3153377      3.0158458    
  18000000   0.48046877    -6.942008       0             -6.2233068      3.5174203    
  18300000   0.48479736    -6.9868104      0             -6.2616343      3.3190556    
  18600000   0.47220291    -6.9320175      0             -6.2256807      3.4503184    
  18900000   0.47161362    -7.006674       0             -6.3012187      3.1145645    
  19200000   0.48304958    -6.9156855      0             -6.1931239      3.6210225    
  19500000   0.47800002    -6.9229372      0             -6.2079289      3.501482     
  19800000   0.5101588     -6.9584381      0             -6.1953255      3.3557279    
  20100000   0.47725565    -7.0041103      0             -6.2902154      3.2694016    
  20400000   0.49470059    -6.9576636      0             -6.217674       3.329308     
  20700000   0.48592794    -7.0201463      0             -6.2932791      3.076575     
  21000000   0.48056547    -7.0052564      0             -6.2864105      3.0031036    
  21300000   0.44752494    -7.0277705      0             -6.3583478      3.1221605    
  21600000   0.47682669    -6.9059165      0             -6.1926633      3.8621026    
  21900000   0.48123031    -6.9452691      0             -6.2254288      3.5479343    
  22200000   0.44927698    -6.9318693      0             -6.2598258      3.5857254    
  22500000   0.45969851    -6.9683983      0             -6.2807659      3.3875734    
  22800000   0.48501339    -6.9434239      0             -6.2179248      3.5828541    
  23100000   0.48065889    -6.9218915      0             -6.2029059      3.6395553    
  23400000   0.49225819    -6.979944       0             -6.2436078      3.3803256    
  23700000   0.48646821    -6.9406285      0             -6.2129531      3.4908012    
  24000000   0.51223324    -6.9056318      0             -6.1394162      3.9335155    
  24300000   0.43110632    -6.9368005      0             -6.2919373      3.5598971    
  24600000   0.45170372    -7.0203817      0             -6.3447082      3.0629461    
  24900000   0.47530298    -6.9119141      0             -6.2009401      3.7850149    
  25200000   0.4386177     -6.9080477      0             -6.2519487      3.6325488    
  25500000   0.48634853    -6.9511397      0             -6.2236433      3.5324495    
  25800000   0.47553776    -6.9638085      0             -6.2524832      3.321763     
  26100000   0.46046034    -6.9440102      0             -6.2552383      3.388687     
  26400000   0.47286898    -6.9691637      0             -6.2618305      3.4111405    
  26700000   0.50627186    -6.9085072      0             -6.1512088      3.749798     
  27000000   0.48135418    -7.0059859      0             -6.2859602      3.0905478    
  27300000   0.48671332    -6.9410218      0             -6.2129798      3.4673115    
  27600000   0.50026086    -6.9885216      0             -6.2402147      3.2645842    
  27900000   0.46954441    -6.9192702      0             -6.2169101      3.7843932    
  28200000   0.46948781    -6.9842739      0             -6.2819983      3.2920499    
  28500000   0.50028864    -6.9184233      0             -6.1700749      3.5848057    
  28800000   0.4656575     -6.8996759      0             -6.2031299      3.7832028    
  29100000   0.50322984    -6.9553496      0             -6.2026016      3.4861331    
  29400000   0.44143529    -6.9472926      0             -6.286979       3.5293432    
  29700000   0.48265437    -6.9794154      0             -6.2574449      3.1326415    
  30000000   0.46233429    -7.0097981      0             -6.3182231      3.1064586    
Loop time of 1558.42 on 8 procs for 30000000 steps with 360 atoms

Performance: 4989665.030 tau/day, 19250.251 timesteps/s, 6.930 Matom-step/s
99.1% CPU use with 8 MPI tasks x 1 OpenMP threads

MPI task timing breakdown:
Section |  min time  |  avg time  |  max time  |%varavg| %total
---------------------------------------------------------------
Pair    | 650.48     | 665.67     | 700.31     |  64.1 | 42.71
Neigh   | 66.311     | 66.951     | 67.864     |   7.0 |  4.30
Comm    | 681.22     | 714.84     | 729.58     |  62.3 | 45.87
Output  | 0.29163    | 0.29187    | 0.29347    |   0.1 |  0.02
Modify  | 78.441     | 81.148     | 84.75      |  23.1 |  5.21
Other   |            | 29.52      |            |       |  1.89

Nlocal:             45 ave          47 max          40 min
Histogram: 1 0 0 0 0 2 0 1 1 3
Nghost:          936.5 ave         959 max         916 min
Histogram: 1 1 0 2 1 1 0 0 0 2
Neighs:        2603.12 ave        2756 max        2321 min
Histogram: 1 0 0 0 1 1 1 1 1 2

Total # of neighbors = 20825
Ave neighs/atom = 57.847222
Neighbor list builds = 770152
Dangerous builds = 1026
Total wall time: 0:25:58
