
include ${pot}.lmp
include kalj.lmp
units lj
atom_style atomic

variable dimensions equal 3
variable density equal 1.2
variable fraca equal 0.8

dimension ${dimensions}
dimension 3
read_restart ${prevbasename}.final.lmprestart.${prevsteps}
read_restart equil/kalj_T2_n360_v300_10000_1.final.lmprestart.${prevsteps}
read_restart equil/kalj_T2_n360_v300_10000_1.final.lmprestart.10000
Reading restart file ...
  restart file = 15 Sep 2022, LAMMPS = 15 Sep 2022
  restoring atom style atomic from restart
  orthogonal box = (0 0 0) to (6.6943295 6.6943295 6.6943295)
  2 by 2 by 2 MPI processor grid
  restoring pair style lj/cut from restart
  360 atoms
  read_restart CPU = 0.002 seconds
include ${pot}_particles.lmp
include kalj_particles.lmp
mass * 1.0 #  set mass 1.0 for all types

pair_style lj/cut 2.5
#pair coeffs type1 type2 eps sigma
pair_coeff 1 1 1.0 1.00 2.5
pair_coeff 1 2 1.5 0.80 2.0
pair_coeff 2 2 0.5 0.88 2.2
pair_modify shift yes
reset_timestep 0

print "Setting up annealing run"
Setting up annealing run
dump 1 all atom ${dumptime} ${basename}.lammpstrj
dump 1 all atom 10000 ${basename}.lammpstrj
dump 1 all atom 10000 equil/kalj_T1.5_n360_v300_10000_1.lammpstrj
#dump_modify 1 sort id scale no

restart ${restarttime} ${basename}.restart
restart 10000 ${basename}.restart
restart 10000 equil/kalj_T1.5_n360_v300_10000_1.restart
restart ${steps} ${basename}.final.lmprestart
restart 10000 ${basename}.final.lmprestart
restart 10000 equil/kalj_T1.5_n360_v300_10000_1.final.lmprestart

thermo ${thermotime}
thermo 1000
timestep ${timestep}
timestep 0.002

neighbor 0.5 bin
neigh_modify every 1 delay ${neighborstep} check yes
neigh_modify every 1 delay 20 check yes

velocity all create ${temp} ${id} dist gaussian
velocity all create 1.5 ${id} dist gaussian
velocity all create 1.5 1 dist gaussian
fix 1 all nvt temp ${temp} ${temp} ${taut}
fix 1 all nvt temp 1.5 ${temp} ${taut}
fix 1 all nvt temp 1.5 1.5 ${taut}
fix 1 all nvt temp 1.5 1.5 0.2
run ${steps}
run 10000
Generated 0 of 1 mixed pair_coeff terms from geometric mixing rule
Neighbor list info ...
  update: every = 1 steps, delay = 20 steps, check = yes
  max neighbors/atom: 2000, page size: 100000
  master list distance cutoff = 3
  ghost atom cutoff = 3
  binsize = 1.5, bins = 5 5 5
  1 neighbor lists, perpetual/occasional/extra = 1 0 0
  (1) pair lj/cut, perpetual
      attributes: half, newton on
      pair build: half/bin/atomonly/newton
      stencil: half/bin/3d
      bin: standard
Per MPI rank memory allocation (min/avg/max) = 4.095 | 4.096 | 4.096 Mbytes
   Step          Temp          E_pair         E_mol          TotEng         Press     
         0   1.5            5.5288793      0              7.7726293      76.063963    
      1000   1.4889961     -5.2372486      0             -3.0099586      15.08741     
      2000   1.5391796     -5.2581121      0             -2.9557559      15.225317    
      3000   1.471325      -5.466845       0             -3.265988       13.962296    
      4000   1.6206344     -5.3845213      0             -2.9603223      14.471569    
      5000   1.4544429     -5.3643612      0             -3.1887571      14.492401    
      6000   1.5805906     -5.2935607      0             -2.9292606      15.006129    
      7000   1.5065258     -5.1502424      0             -2.8967309      15.846118    
      8000   1.4545063     -5.2992848      0             -3.1235859      14.82997     
      9000   1.4349486     -5.1276889      0             -2.981245       15.923504    
     10000   1.579551      -5.2927637      0             -2.9300188      14.871512    
Loop time of 1.6319 on 8 procs for 10000 steps with 360 atoms

Performance: 1058890.232 tau/day, 6127.837 timesteps/s, 2.206 Matom-step/s
90.7% CPU use with 8 MPI tasks x 1 OpenMP threads

MPI task timing breakdown:
Section |  min time  |  avg time  |  max time  |%varavg| %total
---------------------------------------------------------------
Pair    | 0.21984    | 0.23647    | 0.29274    |   4.6 | 14.49
Neigh   | 0.029245   | 0.030321   | 0.031605   |   0.4 |  1.86
Comm    | 0.91325    | 0.96585    | 1.0587     |   5.1 | 59.19
Output  | 0.0015664  | 0.0015796  | 0.0016645  |   0.1 |  0.10
Modify  | 0.25942    | 0.36215    | 0.425      |   9.9 | 22.19
Other   |            | 0.03553    |            |       |  2.18

Nlocal:             45 ave          47 max          40 min
Histogram: 1 0 0 0 0 1 0 1 4 1
Nghost:          926.5 ave         953 max         909 min
Histogram: 1 2 0 1 2 0 1 0 0 1
Neighs:        2596.75 ave        2860 max        2265 min
Histogram: 1 0 0 1 1 1 2 1 0 1

Total # of neighbors = 20774
Ave neighs/atom = 57.705556
Neighbor list builds = 343
Dangerous builds = 8
Total wall time: 0:00:01
