
include ${pot}.lmp
include kalj.lmp
units lj
atom_style atomic

variable dimensions equal 3
variable density equal 1.2
variable fraca equal 0.8

dimension ${dimensions}
dimension 3
read_restart ${prevbasename}.final.lmprestart.${prevsteps}
read_restart equil/kalj_T0.55_n360_v300_3000000_1.final.lmprestart.${prevsteps}
read_restart equil/kalj_T0.55_n360_v300_3000000_1.final.lmprestart.3000000
Reading restart file ...
  restart file = 15 Sep 2022, LAMMPS = 15 Sep 2022
  restoring atom style atomic from restart
  orthogonal box = (0 0 0) to (6.6943295 6.6943295 6.6943295)
  2 by 2 by 2 MPI processor grid
  restoring pair style lj/cut from restart
  360 atoms
  read_restart CPU = 0.025 seconds
include ${pot}_particles.lmp
include kalj_particles.lmp
mass * 1.0 #  set mass 1.0 for all types

pair_style lj/cut 2.5
#pair coeffs type1 type2 eps sigma
pair_coeff 1 1 1.0 1.00 2.5
pair_coeff 1 2 1.5 0.80 2.0
pair_coeff 2 2 0.5 0.88 2.2
pair_modify shift yes
reset_timestep 0

print "Setting up annealing run"
Setting up annealing run
dump 1 all atom ${dumptime} ${basename}.lammpstrj
dump 1 all atom 1000000 ${basename}.lammpstrj
dump 1 all atom 1000000 equil/kalj_T0.5_n360_v300_10000000_1.lammpstrj
#dump_modify 1 sort id scale no

restart ${restarttime} ${basename}.restart
restart 10000000 ${basename}.restart
restart 10000000 equil/kalj_T0.5_n360_v300_10000000_1.restart
restart ${steps} ${basename}.final.lmprestart
restart 10000000 ${basename}.final.lmprestart
restart 10000000 equil/kalj_T0.5_n360_v300_10000000_1.final.lmprestart

thermo ${thermotime}
thermo 100000
timestep ${timestep}
timestep 0.003

neighbor 0.5 bin
neigh_modify every 1 delay ${neighborstep} check yes
neigh_modify every 1 delay 25 check yes

velocity all create ${temp} ${id} dist gaussian
velocity all create 0.5 ${id} dist gaussian
velocity all create 0.5 1 dist gaussian
fix 1 all nvt temp ${temp} ${temp} ${taut}
fix 1 all nvt temp 0.5 ${temp} ${taut}
fix 1 all nvt temp 0.5 0.5 ${taut}
fix 1 all nvt temp 0.5 0.5 0.3
Resetting global fix info from restart file:
  fix style: nvt, fix ID: 1
run ${steps}
run 10000000
Generated 0 of 1 mixed pair_coeff terms from geometric mixing rule
All restart file global fix info was re-assigned
Neighbor list info ...
  update: every = 1 steps, delay = 25 steps, check = yes
  max neighbors/atom: 2000, page size: 100000
  master list distance cutoff = 3
  ghost atom cutoff = 3
  binsize = 1.5, bins = 5 5 5
  1 neighbor lists, perpetual/occasional/extra = 1 0 0
  (1) pair lj/cut, perpetual
      attributes: half, newton on
      pair build: half/bin/atomonly/newton
      stencil: half/bin/3d
      bin: standard
Per MPI rank memory allocation (min/avg/max) = 4.095 | 4.095 | 4.095 Mbytes
   Step          Temp          E_pair         E_mol          TotEng         Press     
         0   0.5           -6.8407521      0             -6.0928354      4.1226944    
    100000   0.50903298    -6.8396743      0             -6.0782458      4.3501579    
    200000   0.54351419    -6.8540889      0             -6.0410822      4.0811286    
    300000   0.50398087    -6.9324235      0             -6.1785522      3.5636592    
    400000   0.46574645    -6.8827774      0             -6.1860983      3.8172587    
    500000   0.52944189    -6.9162643      0             -6.1243075      3.7861946    
    600000   0.48485279    -6.921057       0             -6.195798       3.7161381    
    700000   0.47604377    -6.8691212      0             -6.157039       4.0449691    
    800000   0.50741789    -6.969789       0             -6.2107764      3.3107235    
    900000   0.47404743    -6.8993479      0             -6.1902519      3.7617523    
   1000000   0.50939016    -6.947327       0             -6.1853642      3.4235944    
   1100000   0.51313081    -6.9270726      0             -6.1595145      3.6325829    
   1200000   0.49127269    -6.9022605      0             -6.1673984      3.8617226    
   1300000   0.49015593    -6.922286       0             -6.1890944      3.6738013    
   1400000   0.49018969    -6.8850727      0             -6.1518306      3.9383273    
   1500000   0.47443053    -6.9308584      0             -6.2211894      3.6252859    
   1600000   0.49920551    -6.8790422      0             -6.132314       3.9370181    
   1700000   0.49933235    -6.9286831      0             -6.1817651      3.8044123    
   1800000   0.51603965    -6.9399344      0             -6.1680251      3.7380232    
   1900000   0.50054048    -6.9628403      0             -6.2141151      3.3019614    
   2000000   0.52147395    -6.9327942      0             -6.152756       3.5750506    
   2100000   0.48703453    -6.9237569      0             -6.1952344      3.6438115    
   2200000   0.50484647    -7.0022133      0             -6.2470471      3.1139404    
   2300000   0.4766878     -6.7890653      0             -6.0760198      4.4296466    
   2400000   0.51837316    -6.9098326      0             -6.1344328      3.8163592    
   2500000   0.49093737    -6.9438744      0             -6.209514       3.5415597    
   2600000   0.48711968    -6.9117365      0             -6.1830866      3.6171898    
   2700000   0.51401607    -6.8659914      0             -6.097109       3.9372378    
   2800000   0.47537009    -6.8731111      0             -6.1620366      3.854274     
   2900000   0.5310974     -6.9060155      0             -6.1115823      3.9803169    
   3000000   0.47611573    -6.8937044      0             -6.1815147      3.9298527    
   3100000   0.51649605    -6.8716849      0             -6.0990929      4.0625938    
   3200000   0.48669141    -6.8927276      0             -6.1647184      3.8933275    
   3300000   0.49817752    -6.8880194      0             -6.1428289      3.8697188    
   3400000   0.52138367    -6.9349069      0             -6.1550039      3.5450255    
   3500000   0.52835701    -6.8942459      0             -6.1039119      3.7442493    
   3600000   0.51952692    -6.8839636      0             -6.1068379      4.1646112    
   3700000   0.47600239    -6.904417       0             -6.1923967      3.8077428    
   3800000   0.50012463    -6.9141098      0             -6.1660067      3.8240811    
   3900000   0.49269498    -6.9113475      0             -6.1743579      3.8449593    
   4000000   0.54073412    -6.876057       0             -6.0672089      3.9678029    
   4100000   0.51785604    -6.8814283      0             -6.106802       3.8613645    
   4200000   0.49901732    -6.9186732      0             -6.1722265      3.7274836    
   4300000   0.44943685    -6.8471769      0             -6.1748943      4.1972268    
   4400000   0.45875251    -6.8809704      0             -6.1947531      3.8188608    
   4500000   0.55655441    -6.8689734      0             -6.0364607      3.8891184    
   4600000   0.49863629    -6.966517       0             -6.2206402      3.3949962    
   4700000   0.51949916    -6.8929864      0             -6.1159022      3.7793396    
   4800000   0.5101592     -6.8880449      0             -6.1249317      4.0005358    
   4900000   0.52764109    -6.9135366      0             -6.1242735      3.8532013    
   5000000   0.500484      -6.8261839      0             -6.0775433      4.3105003    
   5100000   0.46550134    -6.9196855      0             -6.2233731      3.622591     
   5200000   0.47459199    -6.9629444      0             -6.2530339      3.3813804    
   5300000   0.48288702    -6.8470342      0             -6.1247157      4.2694322    
   5400000   0.4746406     -6.7863486      0             -6.0763654      4.5655527    
   5500000   0.51625883    -6.9076281      0             -6.1353909      3.7237047    
   5600000   0.49840715    -6.8702509      0             -6.1247169      3.9702903    
   5700000   0.49214554    -6.9333844      0             -6.1972167      3.4763151    
   5800000   0.48494634    -6.8688753      0             -6.1434764      4.0186869    
   5900000   0.50296147    -6.8712545      0             -6.1189079      4.0479659    
   6000000   0.51094024    -6.9106852      0             -6.1464038      3.8774621    
   6100000   0.49960344    -6.9445902      0             -6.1972667      3.344298     
   6200000   0.44507774    -6.9557086      0             -6.2899465      3.4910945    
   6300000   0.48388866    -6.8683373      0             -6.1445205      4.2096062    
   6400000   0.48399855    -6.8397021      0             -6.1157209      4.1150078    
   6500000   0.5315183     -6.9153046      0             -6.1202418      3.8119285    
   6600000   0.50331058    -6.9466862      0             -6.1938175      3.6763146    
   6700000   0.52808304    -6.9396778      0             -6.1497536      3.5194051    
   6800000   0.52309275    -6.9461379      0             -6.1636784      3.4968846    
   6900000   0.47398525    -6.926305       0             -6.217302       3.6303525    
   7000000   0.51010381    -6.8890304      0             -6.1260001      4.1023785    
   7100000   0.47307179    -6.9203596      0             -6.212723       3.7113312    
   7200000   0.52333274    -6.903121       0             -6.1203024      3.7255108    
   7300000   0.49258868    -6.9089798      0             -6.1721492      3.8133736    
   7400000   0.49586482    -6.8408653      0             -6.0991342      4.0606583    
   7500000   0.50037179    -6.8483114      0             -6.0998386      4.1176401    
   7600000   0.5253962     -6.9240286      0             -6.1381235      3.5807893    
   7700000   0.54160608    -6.9460692      0             -6.1359167      3.6337646    
   7800000   0.51172605    -6.962262       0             -6.1968051      3.6205341    
   7900000   0.48353881    -6.8209823      0             -6.0976888      4.2133819    
   8000000   0.5472019     -6.9103884      0             -6.0918655      3.7507384    
   8100000   0.51066157    -6.8934772      0             -6.1296126      3.8025092    
   8200000   0.46206106    -6.842375       0             -6.1512087      4.2336249    
   8300000   0.48434697    -6.9641689      0             -6.2396665      3.4424185    
   8400000   0.52671683    -6.9053672      0             -6.1174866      3.678767     
   8500000   0.50794927    -6.9327757      0             -6.1729683      3.7472835    
   8600000   0.48007337    -6.9372865      0             -6.2191767      3.7365606    
   8700000   0.51614391    -6.9058645      0             -6.1337992      3.8421351    
   8800000   0.4963732     -6.879923       0             -6.1374315      4.0313145    
   8900000   0.49269493    -6.8998701      0             -6.1628806      3.8398561    
   9000000   0.48950343    -6.8501291      0             -6.1179136      4.0034459    
   9100000   0.52379271    -6.9612986      0             -6.177792       3.5143618    
   9200000   0.46930148    -6.8999556      0             -6.1979588      3.740642     
   9300000   0.52645246    -6.9409859      0             -6.1535007      3.5747894    
   9400000   0.48329756    -6.9307907      0             -6.2078581      3.6413917    
   9500000   0.49140205    -6.9348403      0             -6.1997848      3.6981239    
   9600000   0.48213322    -6.9770167      0             -6.2558258      3.4288651    
   9700000   0.4930401     -6.9703192      0             -6.2328134      3.4480971    
   9800000   0.48169449    -6.9752741      0             -6.2547395      3.4244683    
   9900000   0.45966484    -6.9211695      0             -6.2335875      3.4897022    
  10000000   0.48904541    -6.937015       0             -6.2054846      3.5228588    
Loop time of 541.273 on 8 procs for 10000000 steps with 360 atoms

Performance: 4788707.069 tau/day, 18474.950 timesteps/s, 6.651 Matom-step/s
98.6% CPU use with 8 MPI tasks x 1 OpenMP threads

MPI task timing breakdown:
Section |  min time  |  avg time  |  max time  |%varavg| %total
---------------------------------------------------------------
Pair    | 218.79     | 222.57     | 226.46     |  18.2 | 41.12
Neigh   | 23.01      | 23.216     | 23.503     |   3.0 |  4.29
Comm    | 249.58     | 253.51     | 257.34     |  18.3 | 46.84
Output  | 0.36719    | 0.36747    | 0.36943    |   0.1 |  0.07
Modify  | 30.715     | 31.285     | 31.919     |   7.1 |  5.78
Other   |            | 10.32      |            |       |  1.91

Nlocal:             45 ave          50 max          40 min
Histogram: 1 0 1 0 2 0 1 2 0 1
Nghost:        930.875 ave         944 max         913 min
Histogram: 1 0 1 0 1 1 1 0 2 1
Neighs:         2599.5 ave        2924 max        2299 min
Histogram: 2 0 1 0 1 1 1 0 1 1

Total # of neighbors = 20796
Ave neighs/atom = 57.766667
Neighbor list builds = 265664
Dangerous builds = 628
Total wall time: 0:09:01
