
include ${pot}.lmp
include kalj.lmp
units lj
atom_style atomic

variable dimensions equal 3
variable density equal 1.2
variable fraca equal 0.8

dimension ${dimensions}
dimension 3
read_restart ${prevbasename}.final.lmprestart.${prevsteps}
read_restart equil/kalj_T0.65_n360_v300_350000_1.final.lmprestart.${prevsteps}
read_restart equil/kalj_T0.65_n360_v300_350000_1.final.lmprestart.350000
Reading restart file ...
  restart file = 15 Sep 2022, LAMMPS = 15 Sep 2022
  restoring atom style atomic from restart
  orthogonal box = (0 0 0) to (6.6943295 6.6943295 6.6943295)
  2 by 2 by 2 MPI processor grid
  restoring pair style lj/cut from restart
  360 atoms
  read_restart CPU = 0.096 seconds
include ${pot}_particles.lmp
include kalj_particles.lmp
mass * 1.0 #  set mass 1.0 for all types

pair_style lj/cut 2.5
#pair coeffs type1 type2 eps sigma
pair_coeff 1 1 1.0 1.00 2.5
pair_coeff 1 2 1.5 0.80 2.0
pair_coeff 2 2 0.5 0.88 2.2
pair_modify shift yes
reset_timestep 0

print "Setting up annealing run"
Setting up annealing run
dump 1 all atom ${dumptime} ${basename}.lammpstrj
dump 1 all atom 100000 ${basename}.lammpstrj
dump 1 all atom 100000 equil/kalj_T0.6_n360_v300_1000000_1.lammpstrj
#dump_modify 1 sort id scale no

restart ${restarttime} ${basename}.restart
restart 1000000 ${basename}.restart
restart 1000000 equil/kalj_T0.6_n360_v300_1000000_1.restart
restart ${steps} ${basename}.final.lmprestart
restart 1000000 ${basename}.final.lmprestart
restart 1000000 equil/kalj_T0.6_n360_v300_1000000_1.final.lmprestart

thermo ${thermotime}
thermo 50000
timestep ${timestep}
timestep 0.003

neighbor 0.5 bin
neigh_modify every 1 delay ${neighborstep} check yes
neigh_modify every 1 delay 25 check yes

velocity all create ${temp} ${id} dist gaussian
velocity all create 0.6 ${id} dist gaussian
velocity all create 0.6 1 dist gaussian
fix 1 all nvt temp ${temp} ${temp} ${taut}
fix 1 all nvt temp 0.6 ${temp} ${taut}
fix 1 all nvt temp 0.6 0.6 ${taut}
fix 1 all nvt temp 0.6 0.6 0.3
Resetting global fix info from restart file:
  fix style: nvt, fix ID: 1
run ${steps}
run 1000000
Generated 0 of 1 mixed pair_coeff terms from geometric mixing rule
All restart file global fix info was re-assigned
Neighbor list info ...
  update: every = 1 steps, delay = 25 steps, check = yes
  max neighbors/atom: 2000, page size: 100000
  master list distance cutoff = 3
  ghost atom cutoff = 3
  binsize = 1.5, bins = 5 5 5
  1 neighbor lists, perpetual/occasional/extra = 1 0 0
  (1) pair lj/cut, perpetual
      attributes: half, newton on
      pair build: half/bin/atomonly/newton
      stencil: half/bin/3d
      bin: standard
Per MPI rank memory allocation (min/avg/max) = 4.095 | 4.095 | 4.096 Mbytes
   Step          Temp          E_pair         E_mol          TotEng         Press     
         0   0.6           -6.6154202      0             -5.7179202      5.8811478    
     50000   0.62724021    -6.7494345      0             -5.8111877      5.0205269    
    100000   0.59625111    -6.745074       0             -5.8531818      4.8535488    
    150000   0.58696461    -6.6746905      0             -5.7966892      5.3800074    
    200000   0.61801306    -6.7923627      0             -5.8679181      4.7339763    
    250000   0.58651955    -6.7535129      0             -5.8761774      4.985785     
    300000   0.58265567    -6.7438658      0             -5.87231        5.0461078    
    350000   0.63229812    -6.7254809      0             -5.7796683      5.1445712    
    400000   0.63272777    -6.6161335      0             -5.6696783      5.7444852    
    450000   0.58903113    -6.7746735      0             -5.8935811      4.7586854    
    500000   0.60686195    -6.7271017      0             -5.8193374      5.2842185    
    550000   0.61952248    -6.7066228      0             -5.7799204      5.2088657    
    600000   0.64250874    -6.7277205      0             -5.7666345      5.0773014    
    650000   0.57285049    -6.7498069      0             -5.8929181      4.8596278    
    700000   0.65036793    -6.6883592      0             -5.7155172      5.2340955    
    750000   0.5954172     -6.6844884      0             -5.7938435      5.3833108    
    800000   0.56820597    -6.7081227      0             -5.8581813      5.1416719    
    850000   0.59723961    -6.7308276      0             -5.8374567      4.9646653    
    900000   0.58566467    -6.7485249      0             -5.8724682      4.9416119    
    950000   0.60088188    -6.7292842      0             -5.830465       5.2158161    
   1000000   0.5669864     -6.6765379      0             -5.8284207      5.2629829    
Loop time of 67.9395 on 8 procs for 1000000 steps with 360 atoms

Performance: 3815160.081 tau/day, 14718.982 timesteps/s, 5.299 Matom-step/s
96.1% CPU use with 8 MPI tasks x 1 OpenMP threads

MPI task timing breakdown:
Section |  min time  |  avg time  |  max time  |%varavg| %total
---------------------------------------------------------------
Pair    | 22.217     | 22.735     | 23.439     |   7.3 | 33.46
Neigh   | 2.6262     | 2.6611     | 2.7228     |   1.8 |  3.92
Comm    | 33.798     | 34.586     | 34.989     |   6.7 | 50.91
Output  | 0.16112    | 0.16115    | 0.16136    |   0.0 |  0.24
Modify  | 5.9588     | 6.3753     | 6.8163     |  14.6 |  9.38
Other   |            | 1.421      |            |       |  2.09

Nlocal:             45 ave          47 max          43 min
Histogram: 1 0 2 0 0 2 0 2 0 1
Nghost:         931.25 ave         940 max         922 min
Histogram: 1 1 0 1 0 2 0 2 0 1
Neighs:        2599.62 ave        2740 max        2399 min
Histogram: 1 0 0 1 2 0 1 1 0 2

Total # of neighbors = 20797
Ave neighs/atom = 57.769444
Neighbor list builds = 29925
Dangerous builds = 511
Total wall time: 0:01:08
