
include ${pot}.lmp
include kalj.lmp
units lj
atom_style atomic

variable dimensions equal 3
variable density equal 1.2
variable fraca equal 0.8

dimension ${dimensions}
dimension 3
read_restart ${prevbasename}.final.lmprestart.${prevsteps}
read_restart equil/kalj_T0.9_n360_v300_150000_1.final.lmprestart.${prevsteps}
read_restart equil/kalj_T0.9_n360_v300_150000_1.final.lmprestart.150000
Reading restart file ...
  restart file = 15 Sep 2022, LAMMPS = 15 Sep 2022
  restoring atom style atomic from restart
  orthogonal box = (0 0 0) to (6.6943295 6.6943295 6.6943295)
  2 by 2 by 2 MPI processor grid
  restoring pair style lj/cut from restart
  360 atoms
  read_restart CPU = 0.188 seconds
include ${pot}_particles.lmp
include kalj_particles.lmp
mass * 1.0 #  set mass 1.0 for all types

pair_style lj/cut 2.5
#pair coeffs type1 type2 eps sigma
pair_coeff 1 1 1.0 1.00 2.5
pair_coeff 1 2 1.5 0.80 2.0
pair_coeff 2 2 0.5 0.88 2.2
pair_modify shift yes
reset_timestep 0

print "Setting up annealing run"
Setting up annealing run
dump 1 all atom ${dumptime} ${basename}.lammpstrj
dump 1 all atom 50000 ${basename}.lammpstrj
dump 1 all atom 50000 equil/kalj_T0.8_n360_v300_150000_1.lammpstrj
#dump_modify 1 sort id scale no

restart ${restarttime} ${basename}.restart
restart 150000 ${basename}.restart
restart 150000 equil/kalj_T0.8_n360_v300_150000_1.restart
restart ${steps} ${basename}.final.lmprestart
restart 150000 ${basename}.final.lmprestart
restart 150000 equil/kalj_T0.8_n360_v300_150000_1.final.lmprestart

thermo ${thermotime}
thermo 5000
timestep ${timestep}
timestep 0.002

neighbor 0.5 bin
neigh_modify every 1 delay ${neighborstep} check yes
neigh_modify every 1 delay 25 check yes

velocity all create ${temp} ${id} dist gaussian
velocity all create 0.8 ${id} dist gaussian
velocity all create 0.8 1 dist gaussian
fix 1 all nvt temp ${temp} ${temp} ${taut}
fix 1 all nvt temp 0.8 ${temp} ${taut}
fix 1 all nvt temp 0.8 0.8 ${taut}
fix 1 all nvt temp 0.8 0.8 0.2
Resetting global fix info from restart file:
  fix style: nvt, fix ID: 1
run ${steps}
run 150000
Generated 0 of 1 mixed pair_coeff terms from geometric mixing rule
All restart file global fix info was re-assigned
Neighbor list info ...
  update: every = 1 steps, delay = 25 steps, check = yes
  max neighbors/atom: 2000, page size: 100000
  master list distance cutoff = 3
  ghost atom cutoff = 3
  binsize = 1.5, bins = 5 5 5
  1 neighbor lists, perpetual/occasional/extra = 1 0 0
  (1) pair lj/cut, perpetual
      attributes: half, newton on
      pair build: half/bin/atomonly/newton
      stencil: half/bin/3d
      bin: standard
Per MPI rank memory allocation (min/avg/max) = 4.095 | 4.095 | 4.096 Mbytes
   Step          Temp          E_pair         E_mol          TotEng         Press     
         0   0.8           -6.269094       0             -5.0724274      7.9766217    
      5000   0.75994046    -6.3012217      0             -5.1644775      7.7838854    
     10000   0.75311481    -6.2727441      0             -5.1462098      7.9819574    
     15000   0.82890195    -6.3078194      0             -5.0679202      7.8272334    
     20000   0.78870752    -6.3034787      0             -5.1237037      7.7070814    
     25000   0.75788492    -6.262646       0             -5.1289765      8.1406367    
     30000   0.80032502    -6.3033727      0             -5.1062198      7.8754784    
     35000   0.79898389    -6.4145435      0             -5.2193967      6.9724796    
     40000   0.82358475    -6.4021109      0             -5.1701654      7.28289      
     45000   0.80978352    -6.4371821      0             -5.225881       7.1255427    
     50000   0.87447867    -6.2572102      0             -4.9491359      8.1738158    
     55000   0.8449412     -6.3453946      0             -5.0815034      7.6652426    
     60000   0.74106012    -6.4667494      0             -5.3582469      6.8025899    
     65000   0.86113632    -6.3033252      0             -5.0152088      7.8204439    
     70000   0.74409209    -6.3020594      0             -5.1890217      7.7078951    
     75000   0.81204367    -6.3385688      0             -5.1238868      7.65018      
     80000   0.79681163    -6.4138915      0             -5.2219941      7.0922637    
     85000   0.75651087    -6.3530215      0             -5.2214073      7.4699955    
     90000   0.80638507    -6.3827605      0             -5.1765429      7.3473693    
     95000   0.80241109    -6.4574296      0             -5.2571563      7.0106899    
    100000   0.74509339    -6.4181461      0             -5.3036106      7.1203724    
    105000   0.82432465    -6.3373034      0             -5.1042511      7.5210355    
    110000   0.77750792    -6.3632852      0             -5.2002629      7.5977203    
    115000   0.73595118    -6.3700487      0             -5.2691884      7.2686       
    120000   0.81691138    -6.305743       0             -5.0837797      7.8945348    
    125000   0.77126686    -6.3492395      0             -5.1955529      7.664013     
    130000   0.80853508    -6.3977911      0             -5.1883574      7.1873796    
    135000   0.73701381    -6.3116444      0             -5.2091946      7.770363     
    140000   0.68245452    -6.3363388      0             -5.3155006      7.5770867    
    145000   0.72779936    -6.2618622      0             -5.1731957      8.1071561    
    150000   0.81494158    -6.3431906      0             -5.1241738      7.6341742    
Loop time of 10.1992 on 8 procs for 150000 steps with 360 atoms

Performance: 2541366.675 tau/day, 14706.983 timesteps/s, 5.295 Matom-step/s
95.7% CPU use with 8 MPI tasks x 1 OpenMP threads

MPI task timing breakdown:
Section |  min time  |  avg time  |  max time  |%varavg| %total
---------------------------------------------------------------
Pair    | 3.2569     | 3.3757     | 3.5131     |   5.0 | 33.10
Neigh   | 0.30873    | 0.31987    | 0.34983    |   2.1 |  3.14
Comm    | 5.0047     | 5.1178     | 5.2399     |   3.1 | 50.18
Output  | 0.051372   | 0.051416   | 0.05171    |   0.0 |  0.50
Modify  | 0.98659    | 1.0367     | 1.108      |   4.1 | 10.16
Other   |            | 0.2977     |            |       |  2.92

Nlocal:             45 ave          51 max          39 min
Histogram: 1 1 0 0 2 1 1 0 1 1
Nghost:         945.75 ave         968 max         921 min
Histogram: 1 1 0 0 2 1 1 0 0 2
Neighs:        2596.12 ave        3065 max        2214 min
Histogram: 1 1 0 2 1 0 2 0 0 1

Total # of neighbors = 20769
Ave neighs/atom = 57.691667
Neighbor list builds = 3589
Dangerous builds = 0
Total wall time: 0:00:10
